(set-logic QF_BV)
(define-fun implies ((p Bool) (q Bool)) Bool (or (not p) q))

(declare-const STANDARD_MODEL_NAME Bool)
(declare-const A Bool)
(declare-const requireBali2jak Bool)
(declare-const B Bool)
(declare-const requireBali2jcc Bool)
(declare-const C Bool)
(declare-const requireComposer Bool)
(declare-const D Bool)
(declare-const require Bool)
(declare-const requireSyntax Bool)
(assert
(and STANDARD_MODEL_NAME(and(implies requireBali2jak A)
(implies requireBali2jcc B)
(implies requireComposer C)
(and(implies(or A B C D)
 STANDARD_MODEL_NAME)
(implies STANDARD_MODEL_NAME(or(and A(not B)
(not C)
(not D))
(and(not A)
 B(not C)
(not D))
(and(not A)
(not B)
 C(not D))
(and(not A)
(not B)
(not C)
 D))))
(and(implies require STANDARD_MODEL_NAME)
(implies requireSyntax STANDARD_MODEL_NAME)))
(and(implies A(not require))
(implies B(not require))
(implies C(not require))
(implies D(not require))))
)